c WARNING: for repeatability, setting FPU to use double precision
d VARIABLES            21294        
d CONSTRAINTS          85508        
c ============================[ Problem Statistics ]=============================
c |                                                                             |
c |  Number of variables:         21294                                         |
c |  Number of clauses:           85508                                         |
c |  Parse time:                   0.02 s                                       |
c |                                                                             |
c ============================[ Search Statistics ]==============================
c | Conflicts |          ORIGINAL         |          LEARNT          | Progress |
c |           |    Vars  Clauses Literals |    Limit  Clauses Lit/Cl |          |
c ===============================================================================
c |       100 |   15614    69416   169606 |    25452      100     30 | 26.674 % |
c |       250 |   15614    69416   169606 |    27997      250     51 | 26.674 % |
c |       475 |   15614    69416   169606 |    30797      475     51 | 26.674 % |
c |       812 |   15614    69416   169606 |    33877      812     47 | 26.674 % |
c |      1318 |   15614    69416   169606 |    37265     1318     44 | 26.674 % |
c |      2077 |   15614    69416   169606 |    40991     2077     44 | 26.674 % |
c |      3216 |   15614    69416   169606 |    45090     3216     48 | 26.674 % |
c |      4924 |   15614    69416   169606 |    49599     4924     50 | 26.674 % |
c |      7486 |   15614    69416   169606 |    54559     7486     53 | 26.674 % |
c |     11330 |   15614    69416   169606 |    60015    11330     52 | 26.674 % |
c |     17096 |   15614    69416   169606 |    66017    17096     56 | 26.674 % |
c |     25745 |   15614    69416   169606 |    72619    25745     54 | 26.674 % |
c ===============================================================================
c restarts              : 94
c conflicts             : 27132          (9068 /sec)
c decisions             : 47051          (0.00 % random) (15725 /sec)
c propagations          : 14178431       (4738484 /sec)
c conflict literals     : 1436717        (47.91 % deleted)
d RESTARTS             94
d FAILURES             27132        
d NODES                47051        
d BACKTRACKS           47051        
d PROPAGATIONS         14178431     
d NOGOODSIZE           52.95 
d MEMORY               17.00 
d TIME                 2.99219 

s UNSATISFIABLE
